n = 15;
lu = [|10, 138
      |-95, 208
      |92, 120
      |-176, 73
      |-213, -52
      |-112, 111
      |-82, 1
      |156, 201
      |-44, 225
      |-197, 141
      |-157, 169
      |27, 93
      |-131, 205
      |18, 172
      |-86, 63|];
